c Lingeling SAT Solver
c 
c Version ala b02aa1a04343558c4252b5f4a723be021964f652
c 
c Copyright (C) 2010-2012 Armin Biere JKU Linz Austria.
c All rights reserved.
c 
c released Sat Oct 13 14:05:26 CEST 2012
c compiled Sat Feb 16 02:48:12 EST 2013
c 
c gcc (Debian 4.4.5-8) 4.4.5
c -Wall -O3 -DNLGLOG -DNDEBUG -DNCHKSOL -DNLGLPICOSAT 
c Linux greencar2 2.6.32-5-amd64 x86_64
c 
c reading input file p77.cnf
c no embedded options
c found 'p cnf 220746 680539' header
c read 220746 variables, 680539 clauses, 1417612 literals in 0.0 seconds
c
c feature vars 220746
c feature lits.total 1417612
c feature lits.pos 756116
c feature lits.neg 661496
c feature clauses.total 680539
c feature clauses.unit 81276
c feature clauses.bin 482053
c feature clauses.trn 115810
c feature clauses.lrg 1400
c feature cog.val.min 1
c feature cog.val.avg 98269
c feature cog.val.max 210937
c feature cog.var.min 1
c feature cog.var.avg 110374
c feature cog.var.max 220745
c
c
c --abstime=0
c --acts=2
c --actavgmax=120
c --actstdmin=20
c --actstdmax=80
c --agile=23
c --bias=2
c --block=1
c --blkrtc=0
c --blkclslim=2000
c --blkocclim=2000
c --blkmaxeff=2147483647
c --blkmineff=10000000
c --blkreleff=20
c --card=0
c --cce=3
c --ccemaxeff=100000000
c --ccemineff=5000000
c --ccereleff=3
c --check=0
c --cgrclsr=1
c --cgrmaxority=20
c --cgrmaxeff=8000000
c --cgrmineff=200000
c --cgreleff=1
c --cgrexteq=1
c --cgrextand=1
c --cgrextunits=1
c --cgrextite=1
c --cgrextxor=1
c --cliff=1
c --cliffreleff=8
c --cliffmineff=10000000
c --cliffmaxeff=100000000
c --compact=0
c --decompose=1
c --defragint=10000000
c --defragfree=50
c --elim=1
c --elmrtc=0
c --elmblk=1
c --elmclslim=1000
c --elmocclim=1000
c --elmaxeff=100000000
c --elmineff=5000000
c --elmreleff=10
c --sleeponabort=0
c --exitonabort=0
c --flipping=1
c --flipint=2
c --flipdur=50
c --fliptop=1
c --force=0
c --gauss=1
c --gaussextrall=1
c --gaussmaxor=20
c --gaussexptrn=1
c --gaussmaxeff=50000000
c --gaussmineff=2000000
c --gaussreleff=2
c --gluescale=2
c --gluekeep=0
c --inprocessing=1
c --cintinc=10000
c --irrlim=20
c --lift=1
c --lftmaxeff=20000000
c --lftmineff=500000
c --lftreleff=6
c --lhbr=1
c --lkhd=1
c --clim=-1
c --mocint=1000
c --move=2
c --log=-1
c --otfs=1
c --phase=0
c --phaseneginit=0
c --plain=0
c --probe=1
c --prbasicmaxeff=100000000
c --prbasicmineff=1000000
c --prbasicreleff=10
c --prbasic=1
c --prbasicroundlim=9
c --queuemergelim=10000
c --queuefactor=833
c --queueinc=20
c --rmincpen=4
c --seed=0
c --smallirr=90
c --smallve=1
c --smallvevars=12
c --randec=1
c --randecint=1000
c --redfixed=0
c --redlbound=0
c --redlexpfac=10
c --redldoutfac=0
c --redloutinc=10000
c --redlinit=1000
c --redlinc=1000
c --redinoutinc=100
c --redlmininc=10
c --redlmaxinc=200
c --redlminrel=10
c --redlmaxrel=300
c --redlminabs=500
c --redlmaxabs=1000000
c --reduce=1
c --restart=2
c --restartint=5
c --rstinoutinc=110
c --simplify=1
c --simpdelay=100
c --simpen=4
c --sizepen=1000000
c --sizemaxpen=3
c --sortlits=0
c --syncint=111111
c --termint=122222
c --ternres=1
c --ternresrtc=0
c --trnrmineff=4000000
c --trnrmaxeff=40000000
c --trnreleff=10
c --transred=1
c --trdmineff=100000
c --trdmaxeff=2000000
c --trdreleff=10
c --unhide=1
c --unhdextstamp=1
c --unhdhbr=0
c --unhdmaxeff=20000000
c --unhdmineff=1000000
c --unhdreleff=4
c --unhdlnpr=3
c --unhdroundlim=5
c --verbose=1
c --witness=1
c [limits] no conflict limit
c [limits] simplification delayed by 100 to 100 conflicts
c 
c  seconds         irredundant          redundant clauses agility   height
c          variables clauses conflicts large binary ternary    glue         MB
c 
c *    0.0  121610   503389         0       0      0     0  63  0.0   0.0   41
c [cut-width] 165309, max 258143, min4 101096 at 75%, min10 38141 at 88%
c [decision-order] bias 1, old 1
c [queue-schedule-all-variables]
c s    0.0  121610   503389         0       0      0     0  63  0.0   0.0   41
c [simplification-1] limit hit at 100 conflicts
c [simplification-1] simplification penalty of 4
c [ternres-1] limit 4000000 with penalty 0 = 0 + 0
c [ternres-1] all 121610 free variables schedulable
c [ternres-1] 0 ternary resolvents (0 bin, 0 trn)
c [ternres-1] 8803 variables remain 7% (112807 retained)
c [gauss-1] limit 2000000 penalty 0 = 0 + 0
c [gauss-1] extracted 170576 xors of average arity 2.0
c [gauss-1] connected 341156 occurrences of 113109 variables (average 3.0)
c [gauss-1] limit 2000000 penalty 0 = 0 + 0
c d    0.7   55245   247130       100     100      0     0  44  4.7 414.3   20
c [gauss-1] exported 0 unary, 1 binary and 0 ternary equations
c G    0.7   55245   247130       100     100      0     0  44  4.7 414.3   20
c [basicprobe-1] limit 1000000 penalty 0 = 0 + 0
c [basicprobe-1-0] 4817 probes remain 9% after last round
c [basicprobe-1-0] removed 0 variables, found 4015 hbrs
c p    0.8   55245   247130       100     100   4015     0  44  4.7 414.3   25
c [cgrclsr-1] limit 200000 penalty 0 = 0 + 0
c [cgrclsr-1] all 55245 free variables schedulable
c [cgrclsr-1] fully completed congruence closure
c [lift-1] limit 500000 with penalty 0 = 0 + 0
c [lift-1] using 55245 probes 100%
c [lift-1] 55206 variables remain 100% (39 retained)
c [cliff-1] limit of 10000000 steps penalty 0 = 0 + 0
c [cliff-1] failed 0, lifted 0
c [unhide-1] limit 1000000 with penalty 0 = 0 + 0
c [unhide-1-1] 0 units, 0 failed, 22471 tauts, 0 hbrs, 60 literals
c u    1.4   55245   224659       100     100  18746     0  44  4.7 414.3   25
c [transred-1] limit 100000 with penalty 0 = 0 + 0
c t    1.4   55245   224657       100     100  18740     0  44  4.7 414.3   25
c [block-1] scheduling all variables this time
c [block-1] scheduled 55245 variables 100%
c [block-1] limit of 10000000 steps penalty 0 = 0 + 0
c [block-1] fully completed blocked clause elimination
c [block-1] transition to [ all 0 rem 0 ] state
c [block-1] eliminated 5400 blocked clauses
c k    1.6   55245   219257       100     100  18940  5200  44  4.7 414.3   21
c [cce-1] scheduling all variables this time
c [cce-1] limit of 10000000 steps penalty 0 = 0 + 0
c [cce-1] incomplete covered clause elimination 48990 not tried 89%
c [cce-1] transition to [ all 1 rem 1 ] state
c [cce-1] eliminated 1231 covered clauses
c E    1.9   55244   218026       100     100  23130  5200  44  4.7 414.3   23
c [elim-1] scheduling all variables this time
c [elim-1] scheduled 55244 variables 100%
c [elim-1] limit of 5000000 steps penalty 0 = 0 + 0
c [elim-1] incomplete variable elimination 39116 not tried 71%
c [elim-1] transition to [ all 1 rem 1 ] state
c [elim-1] eliminated 7747 = 14% variables out of 55244
c e    2.8   47497   213263       100      45   8646   548  44  4.7 414.3   23
c [phase-1] phase bias: 892 positive 15%, 4950 negative 85%
c [simplification-1] removed 74113 variables 60%
c [simplification-1] limit increments divided by 31
c [simplification-1] arithmetic increase of conflict limit interval by 322
c [simplification-1] new irredundant limit 2208779
c [simplification-1] new conflict limit 422
c [simplification-1] simplification penalty reduced to 3
c R    2.9   47497   213263       162     104   8648   549  21  9.5 648.3   27
c R    3.0   47497   213263       403     296   8661   578   8  8.5 383.0   27
c [simplification-2] limit hit at 422 conflicts
c [simplification-2] simplification penalty of 3
c [ternres-2] limit 2000000 with penalty 1 = 1 + 0
c [ternres-2] 3445 schedulable variables 7%
c [ternres-2] 0 ternary resolvents (0 bin, 0 trn)
c [ternres-2] fully completed ternary resolution
c [gauss-2] limit 2000000 penalty 0 = 0 + 0
c [gauss-2] extracted 1082 xors of average arity 3.0
c [gauss-2] connected 3246 occurrences of 1488 variables (average 2.2)
c [gauss-2] limit 2000000 penalty 0 = 0 + 0
c [gauss-2] fully completed
c [gauss-2] exported 0 unary, 0 binary and 0 ternary equations
c G    3.1   47497   213263       422     301   8666   587   8  8.2 372.1   23
c [basicprobe-2] limit 500000 penalty 1 = 1 + 0
c [basicprobe-2-0] 4393 probes remain 9% after last round
c [basicprobe-2-0] removed 0 variables, found 577 hbrs
c p    3.2   47497   213263       422     301   9243   587   8  8.2 372.1   27
c [cgrclsr-2] limit 100000 penalty 1 = 1 + 0
c [cgrclsr-2] all 47497 free variables schedulable
c [cgrclsr-2] fully completed congruence closure
c [lift-2] limit 250000 with penalty 1 = 1 + 0
c [lift-2] using 47464 probes 100%
c [lift-2] 47440 variables remain 100% (57 retained)
c [cliff-2] limit of 5000000 steps penalty 1 = 1 + 0
c [cliff-2] failed 0, lifted 0
c [unhide-2] limit 1000000 with penalty 0 = 0 + 0
c [unhide-2-2] 0 units, 0 failed, 1405 tauts, 0 hbrs, 88 literals
c u    3.6   47497   213250       422     300   8300   583   8  8.2 372.1   27
c [transred-3] limit 100000 with penalty 0 = 0 + 0
c t    3.6   47497   213248       422     300   8296   583   8  8.2 372.1   27
c [block-2] scheduling all variables this time
c [block-2] scheduled 47497 variables 100%
c [block-2] limit of 10000000 steps penalty 0 = 0 + 0
c [block-2] fully completed blocked clause elimination
c [block-2] transition to [ all 0 rem 0 ] state
c [block-2] eliminated 1 blocked clauses
c k    3.7   47497   213247       422     300   8297   583   8  8.2 372.1   23
c [cce-2] 44850 variables 94% will be scheduled this time
c [cce-2] limit of 10000000 steps penalty 0 = 0 + 0
c [cce-2] 44192 variables 93% remain to be tried next time
c [cce-2] transition to [ all 0 rem 1 ] state
c [cce-2] eliminated 440 covered clauses
c E    4.0   47497   212807       422     300   8871   583   8  8.2 372.1   23
c [elim-2] 39058 variables 82% will be scheduled this time
c [elim-2] scheduled 39058 variables 82%
c [elim-2] limit of 5000000 steps penalty 0 = 0 + 0
c [elim-2] 28940 variables 61% remain to be tried next time
c [elim-2] transition to [ all 0 rem 1 ] state
c [elim-2] eliminated 1098 = 2% variables out of 47497
c e    5.0   46399   212317       422     289   5658   582   8  8.2 372.1   23
c [phase-2] phase bias: 1 positive 100%, 0 negative 0%
c [simplification-2] removed 1098 variables 2%
c [simplification-2] limit increments divided by 2
c [simplification-2] arithmetic increase of conflict limit interval by 5000
c [simplification-2] new irredundant limit 2208779
c [simplification-2] new conflict limit 5744
c [simplification-2] simplification penalty reduced to 2
c R    5.2   46399   212317       967     771   5672   626   4  7.5 276.4   27
c -    5.4   46399   212317      1275     523   5684   666   4  6.7 242.1   27
c R    5.7   46399   212317      2256    1402   5712   736   6  8.2 302.2   27
c -    6.4   46399   212317      4196    1507   5795   959   3  7.2 281.0   27
c 
c  seconds         irredundant          redundant clauses agility   height
c          variables clauses conflicts large binary ternary    glue         MB
c 
c 1    6.6   46399   212317      4708    2003   5801   969   4  7.8 294.7   28
c 
c  seconds         irredundant          redundant clauses agility   height
c          variables clauses conflicts large binary ternary    glue         MB
c 
c blkd: 2 bces, 5401 removed, 1287932 resolutions, 3581363 steps
c blkd: 9015 blocking literals 2%, 0 pure
c cces: 2 cces, 1666 eliminated, 471 ate 28%, 1195 abce 72%
c cces: 14294 probed, 1 lifted, 1 failed
c clff: 2 cliffs, 0 lifted, 0 failed
c clff: 7282 decisions, 15001771 steps
c clls: 1 sat, 0 simp, 0 freeze, 0 melt
c clls: 2098151 add, 0 assume,, 0 deref, 0 failed
c clls: 0 cassume, 0 mosat
c coll: 11 gcs, 0 rescored clauses
c cgrs: 2 count, 300028 esteps, 81610 csteps
c cgrs: 0 eqs, 0 units
c cgrs: 0 matched (0 ands 0%, 0 xors 0%, 0 ites 0%)
c cgrs: 0 simplified (0 ands 0%, 0 xors 0%, 0 ites 0%)
c cgrs: 2284 extracted (1935 ands 85%, 349 xors 15%, 0 ites 0%)
c dcps: 3 decompositions, 66365 equivalent 30%
c decs: 126918 decision, 125 random 0.098%
c decs: 31976 flipped 25.194% (in 32 phases)
c elms: 2 elims, 8845 eliminated 4%
c elms: 8643 small 98%, 202 large 2%
c elms: 26212 tried small, 8643 succeeded 33%, 17569 failed 67%
c elms: 0 subsumed, 0 strengthened, 199 blocked
c elms: 317522 copies, 219722 resolutions, 646924 ipos
c elms: 10 subchks, 6 strchks
c frcs: 0 computed, 33.0 - 67.0 average min-cut range
c gaus: 2 extractions, 171658 extracted, 2.0 size, 3 max
c gaus: exported 0 units, 1 binary and 0 ternary equations
c gaus: 0 gc, 8000024 steps, 4000012 extr 50%, 2469061 elim 31%
c glue: 7.8 avg, 2.8 scaled avg
c glue: 0 maxredglue=15 (0%)
c lift: 2 phases, 378 probed (126 level1 33%, 252 level2 67%)
c lift: 0 units, 0 equivalences, 0 implications
c hbrs: 22882 hbrs = 22882 trn 100% + 0 lrg 0%, 4 sub 0%
c lrnd: 4667 clauses, 2806 uips 60%, 16.5 length, 7.8 glue
c ints: 255 luby (28447 steps), 0 inout (0 steps)
c mins: 76916 learned lits, 4% minimized
c move: moved 7067, 1867 binary 26%, 5200 ternary 74%
c otfs: str 247 dyn (225 red, 22 irr) 41 drv 17%, 206 rst 83%
c otfs: sub 2 dyn (2 red, 0 irr)
c phas: 2 computed, 5952 set, 893 pos (15%), 5059 neg (85%)
c prbs: 2 basic, 1862 probed, 0 failed, 0 lifted
c prps: 16595814 props, 86 props/dec
c prps: 66% srch, 34% simp, 0% lkhd
c psns: 500023 searches, 26832 hits, 5% hit rate
c queu: 13899 new, 4543 del, 119 maximum priority
c queu: 9338 merged, 814 collected, 2 gcs
c queu: 4914 deprioritized, 20.5 lines on average
c reds: 2 count, 0 reset, 2 acts 100%, 0 exp 0%
c reds: 2 arithmetic 100%, 2 double 100%
c rmbd: 13 removed, 0 red 0%
c rsts: 227 restarts 89%, 27 skipped 11%
c rsts: 35 kept 15.4% average 47.5%
c simp: 2 count (0 ilim 0%, 0 plim 0%, 2 clim 100%)
c trnr: 2 count, 0 bin, 0 trn, 4249943 steps
c tops: 99137 fixed 45%, 0 iterations
c trds: 4 transitive reductions, 14 removed, 0 failed
c trds: 284 nodes, 349 edges, 201220 steps
c unhd: 2 count, 2 rounds, 2269638 steps
c unhd: 0 non-trivial sccs of average size 0.0
c unhd: 0 units, 0 bin, 0 trn, 0 lrg
c unhd: 0 failed, 0 stamp, 0 lits, 0 bin, 0 trn, 0 lrg
c unhd: 23876 tauts, 0 bin 0%, 0 trn 0%, 1 lrg 0%
c unhd: 23876 tauts, 23875 stamp 100%, 1405 red 6%
c unhd: 0 hbrs, 0 trn 0%, 0 lrg 0%, 0 red 0%
c unhd: 148 strd, 0 bin 0%, 0 trn 0%, 148 lrg 100%, 146 red 99%
c vars: 46399 remaining 21% and 174347 removed 79% out of 220746
c vars: 99137 fixed 45%, 8845 eliminated 4%, 66365 equivalent 30%
c vsts: 80108069 visits, 68% srch, 32% simp, 0% lkhd
c vsts: 5.0 search visits per propagation 11585.8 per conflict
c wchs: 8869443 pushed, 3983762 enlarged, 20 defrags
c 
c scaledglue  added       reduced       forcing      resolved     conflicts
c 
c all      4090 100      2006 100     29594 100      7657 100       597 100
c 
c  0          0   0         0   0         0   0         0   0         0   0 
c  1         31   1         0   0       461   2        51   1         2   0 
c  2       1194  29       748  37     11488  39      1779  23        81  14 
c  3       1572  38<      802  40<    12247  41<     2990  39<      216  36<
c  4        967  24       344  17      4629  16      2196  29       253  42 
c  5        207   5        75   4       571   2       422   6        36   6 
c  6         43   1        15   1        74   0        74   1         2   0 
c  7         45   1        13   1        70   0        83   1         6   1 
c  8         23   1         6   0        46   0        51   1         0   0 
c  9          5   0         2   0         5   0         7   0         1   0 
c 10          3   0         1   0         3   0         4   0         0   0 
c 11          0   0         0   0         0   0         0   0         0   0 
c 12          0   0         0   0         0   0         0   0         0   0 
c 13          0   0         0   0         0   0         0   0         0   0 
c 14          0   0         0   0         0   0         0   0         0   0 
c 15          0   0         0   0         0   0         0   0         0   0 
c 
c avg             3.1           2.9           2.8           3.3           3.5
c std             1.1           1.0           0.9           1.1           0.9
c 
c 126918 decisions, 4708 conflicts, 714.6 conflicts/sec
c 16595814 propagations, 2.5 megaprops/sec
c 6.6 seconds, 47.6 MB
c 
c    0.200   3% analysis
c    0.236   4% block
c    0.008   0% bump
c    0.000   0% card
c    0.676  10% cce
c    0.500   8% cliff
c    0.012   0% cutwidth
c    0.124   2% decide
c    0.000   0% force
c    0.440   7% gc
c    0.168   3% cgrclsr
c    0.284   4% decomp
c    0.132   2% defrag
c    1.852  28% elim
c    0.728  11% gauss
c    0.160   2% lift
c    0.036   1% mincls
c    0.044   1% phase
c    0.080   1% probe
c    0.008   0% reduce
c    0.084   1% restart
c    0.064   1% ternres
c    0.008   0% transred
c    0.148   2% unhide
c ==================================
c    0.016   0% preprocessing     0%
c    4.888  74% inprocessing    100%
c ==================================
c    4.904  74% simplifying
c    0.000   0% lookahead
c    1.676  25% search
c ==================================
c    6.588 100% all
c
s SATISFIABLE
